NAME : local_6
TYPE : ATSP
DIMENSION : 10
EDGE_WEIGHT_TYPE : EXPLICIT
EDGE_WEIGHT_FORMAT : FULL_MATRIX
EDGE_WEIGHT_SECTION
0 147 10000000 566 757 808 652 10000000 535 279 
0 0 10000000 554 694 866 649 10000000 451 342 
0 10000000 0 10000000 10000000 10000000 10000000 297 10000000 10000000 
0 554 10000000 0 313 649 164 10000000 292 405 
0 694 10000000 313 0 886 415 10000000 254 676 
0 866 10000000 629 886 0 471 10000000 840 532 
0 649 10000000 164 415 471 0 10000000 415 442 
0 10000000 297 10000000 10000000 10000000 10000000 0 10000000 10000000 
0 451 10000000 292 254 840 415 10000000 0 501 
0 10000000 10000000 10000000 10000000 10000000 10000000 10000000 10000000 0 
EOF